c FILE: DSJC1000.5
c
c SOURCE: David Johnson (dsj@research.att.com)
c
c DESCRIPTION: Random graph used in the paper
c              "Optimization by Simulated Annealing: An
c               Experimental Evaluation; Part II, Graph
c               Coloring and Number Partitioning" by
c              David S. Johnson, Cecilia R. Aragon, 
c              Lyle A. McGeoch and Catherine Schevon
c              Operations Research, 39, 378-406 (1991)
c
p edge 1000 499652
e 3 1
e 4 2
e 4 3
e 5 4
e 6 3
e 6 4
e 6 5
e 7 1
e 7 2
e 7 3
e 7 4
e 7 5
e 8 1
e 8 3
e 8 4
e 9 3
e 9 4
e 9 5
e 9 6
e 9 8
e 10 1
e 10 3
e 10 7
e 10 8
e 10 9
e 11 1
e 11 2
e 11 3
e 11 5
e 11 8
e 11 9
e 11 10
e 12 1
e 12 4
e 12 6
e 12 8
e 12 9
e 12 10
e 13 1
e 13 2
e 13 3
e 13 5
e 13 8
e 13 9
e 14 1
e 14 3
e 14 6
e 14 7
e 14 8
e 14 11
e 14 12
e 15 1
e 15 5
e 15 9
e 15 10
e 15 11
e 16 2
e 16 3
e 16 4
e 16 7
e 16 8
e 16 11
e 16 14
e 17 3
e 17 4
e 17 6
e 17 7
e 17 8
e 17 10
e 17 15
e 17 16
e 18 6
e 18 9
e 18 12
e 18 14
e 18 15
e 19 3
e 19 7
e 19 9
e 19 11
e 19 13
e 19 15
e 19 18
e 20 1
e 20 3
e 20 4
e 20 5
e 20 7
e 20 9
e 20 10
e 20 12
e 20 14
e 20 18
e 20 19
e 21 3
e 21 5
e 21 7
e 21 8
e 21 9
e 21 12
e 21 13
e 21 16
e 21 18
e 21 19
e 22 1
e 22 5
e 22 7
e 22 8
e 22 11
e 22 12
e 22 13
e 22 14
e 22 15
e 22 16
e 22 17
e 22 19
e 22 20
e 22 21
e 23 3
e 23 5
e 23 6
e 23 7
e 23 8
e 23 12
e 23 14
e 23 15
e 23 16
e 23 17
e 23 18
e 23 20
e 23 21
e 23 22
e 24 3
e 24 8
e 24 9
e 24 10
e 24 13
e 24 15
e 24 19
e 24 21
e 25 2
e 25 5
e 25 11
e 25 18
e 25 19
e 25 20
e 25 22
e 25 23
e 26 1
e 26 6
e 26 9
e 26 13
e 26 14
e 26 18
e 26 19
e 26 20
e 26 21
e 26 22
e 26 23
e 26 25
e 27 3
e 27 5
e 27 6
e 27 7
e 27 8
e 27 9
e 27 10
e 27 12
e 27 13
e 27 19
e 27 23
e 27 24
e 27 25
e 27 26
e 28 3
e 28 9
e 28 11
e 28 17
e 28 20
e 28 21
e 28 22
e 28 24
e 28 25
e 28 26
e 28 27
e 29 1
e 29 3
e 29 4
e 29 10
e 29 11
e 29 13
e 29 14
e 29 18
e 29 19
e 29 22
e 29 24
e 29 28
e 30 1
e 30 3
e 30 5
e 30 6
e 30 8
e 30 9
e 30 11
e 30 15
e 30 18
e 30 19
e 30 20
e 30 21
e 30 23
e 30 25
e 30 27
e 31 2
e 31 4
e 31 5
e 31 7
e 31 8
e 31 9
e 31 12
e 31 15
e 31 16
e 31 17
e 31 19
e 31 22
e 31 23
e 31 25
e 31 26
e 31 28
e 31 30
e 32 2
e 32 3
e 32 4
e 32 7
e 32 8
e 32 9
e 32 10
e 32 11
e 32 12
e 32 13
e 32 14
e 32 15
e 32 17
e 32 18
e 32 19
e 32 20
e 32 22
e 32 24
e 32 25
e 32 26
e 32 27
e 32 29
e 33 2
e 33 4
e 33 5
e 33 8
e 33 9
e 33 11
e 33 12
e 33 15
e 33 17
e 33 18
e 33 19
e 33 20
e 33 21
e 33 23
e 33 24
e 33 29
e 34 1
e 34 2
e 34 3
e 34 4
e 34 5
e 34 7
e 34 9
e 34 11
e 34 13
e 34 16
e 34 18
e 34 19
e 34 21
e 34 23
e 34 28
e 34 29
e 34 33
e 35 1
e 35 3
e 35 4
e 35 5
e 35 10
e 35 11
e 35 19
e 35 20
e 35 25
e 35 27
e 35 28
e 35 30
e 35 32
e 35 34
e 36 3
e 36 6
e 36 7
e 36 9
e 36 12
e 36 14
e 36 16
e 36 17
e 36 21
e 36 23
e 36 32
e 36 33
e 36 35
e 37 1
e 37 5
e 37 10
e 37 11
e 37 12
e 37 15
e 37 18
e 37 19
e 37 21
e 37 22
e 37 24
e 37 26
e 37 27
e 37 30
e 37 32
e 37 33
e 38 1
e 38 6
e 38 9
e 38 12
e 38 14
e 38 16
e 38 18
e 38 19
e 38 20
e 38 23
e 38 25
e 38 28
e 38 29
e 38 31
e 38 34
e 38 35
e 39 1
e 39 3
e 39 4
e 39 6
e 39 7
e 39 8
e 39 9
e 39 10
e 39 11
e 39 14
e 39 15
e 39 17
e 39 18
e 39 20
e 39 22
e 39 23
e 39 24
e 39 27
e 39 29
e 39 31
e 39 32
e 39 34
e 39 35
e 39 38
e 40 2
e 40 3
e 40 4
e 40 8
e 40 9
e 40 12
e 40 14
e 40 15
e 40 17
e 40 19
e 40 20
e 40 22
e 40 24
e 40 25
e 40 26
e 40 27
e 40 28
e 40 29
e 40 30
e 40 32
e 40 33
e 40 35
e 40 36
e 40 37
e 40 38
e 40 39
e 41 7
e 41 11
e 41 12
e 41 13
e 41 14
e 41 16
e 41 20
e 41 22
e 41 23
e 41 25
e 41 27
e 41 28
e 41 29
e 41 33
e 41 34
e 41 35
e 41 37
e 42 2
e 42 3
e 42 5
e 42 6
e 42 9
e 42 10
e 42 11
e 42 12
e 42 14
e 42 16
e 42 21
e 42 22
e 42 24
e 42 25
e 42 29
e 42 31
e 42 34
e 42 38
e 43 3
e 43 4
e 43 5
e 43 8
e 43 9
e 43 11
e 43 12
e 43 18
e 43 26
e 43 27
e 43 28
e 43 30
e 43 31
e 43 32
e 43 33
e 43 34
e 43 36
e 43 38
e 43 40
e 44 1
e 44 2
e 44 3
e 44 4
e 44 5
e 44 9
e 44 10
e 44 11
e 44 13
e 44 15
e 44 17
e 44 20
e 44 21
e 44 22
e 44 23
e 44 24
e 44 25
e 44 27
e 44 29
e 44 30
e 44 31
e 44 32
e 44 33
e 44 35
e 44 36
e 44 38
e 44 39
e 44 41
e 45 2
e 45 4
e 45 5
e 45 7
e 45 8
e 45 11
e 45 14
e 45 17
e 45 19
e 45 20
e 45 21
e 45 22
e 45 26
e 45 28
e 45 29
e 45 30
e 45 31
e 45 32
e 45 33
e 45 34
e 45 36
e 45 40
e 45 41
e 45 42
e 45 43
e 45 44
e 46 2
e 46 6
e 46 9
e 46 10
e 46 14
e 46 16
e 46 18
e 46 20
e 46 21
e 46 22
e 46 23
e 46 25
e 46 27
e 46 28
e 46 29
e 46 30
e 46 34
e 46 35
e 46 36
e 46 37
e 46 38
e 46 39
e 46 41
e 46 43
e 46 45
e 47 2
e 47 4
e 47 7
e 47 11
e 47 15
e 47 16
e 47 19
e 47 21
e 47 22
e 47 24
e 47 25
e 47 27
e 47 28
e 47 29
e 47 31
e 47 34
e 47 35
e 47 36
e 47 37
e 47 39
e 47 40
e 47 41
e 47 45
e 48 1
e 48 3
e 48 6
e 48 8
e 48 11
e 48 14
e 48 16
e 48 17
e 48 20
e 48 21
e 48 22
e 48 24
e 48 26
e 48 29
e 48 30
e 48 31
e 48 33
e 48 34
e 48 36
e 48 38
e 48 39
e 48 43
e 48 44
e 48 46
e 49 10
e 49 11
e 49 13
e 49 14
e 49 15
e 49 16
e 49 17
e 49 19
e 49 20
e 49 21
e 49 23
e 49 24
e 49 26
e 49 31
e 49 33
e 49 34
e 49 36
e 49 37
e 49 40
e 49 48
e 50 1
e 50 3
e 50 4
e 50 6
e 50 7
e 50 8
e 50 11
e 50 13
e 50 14
e 50 15
e 50 16
e 50 17
e 50 19
e 50 22
e 50 24
e 50 25
e 50 27
e 50 28
e 50 29
e 50 30
e 50 32
e 50 36
e 50 39
e 50 40
e 50 44
e 50 45
e 50 46
e 50 48
e 50 49
e 51 2
e 51 3
e 51 4
e 51 6
e 51 7
e 51 10
e 51 12
e 51 13
e 51 16
e 51 18
e 51 19
e 51 20
e 51 22
e 51 23
e 51 29
e 51 35
e 51 41
e 51 45
e 51 46
e 51 47
e 51 50
e 52 6
e 52 7
e 52 9
e 52 13
e 52 15
e 52 17
e 52 19
e 52 21
e 52 26
e 52 27
e 52 28
e 52 32
e 52 37
e 52 38
e 52 40
e 52 41
e 52 42
e 52 43
e 52 45
e 52 46
e 52 47
e 52 48
e 52 49
e 52 50
e 52 51
e 53 4
e 53 6
e 53 7
e 53 10
e 53 16
e 53 17
e 53 20
e 53 23
e 53 28
e 53 29
e 53 30
e 53 32
e 53 35
e 53 36
e 53 37
e 53 39
e 53 40
e 53 41
e 53 43
e 53 44
e 53 45
e 53 46
e 53 47
e 53 49
e 53 50
e 53 51
e 54 3
e 54 4
e 54 6
e 54 7
e 54 9
e 54 11
e 54 16
e 54 17
e 54 18
e 54 19
e 54 25
e 54 26
e 54 27
e 54 28
e 54 30
e 54 33
e 54 38
e 54 40
e 54 45
e 54 48
e 54 49
e 54 51
e 54 52
e 55 1
e 55 3
e 55 7
e 55 10
e 55 11
e 55 12
e 55 17
e 55 18
e 55 20
e 55 21
e 55 23
e 55 32
e 55 33
e 55 35
e 55 37
e 55 39
e 55 41
e 55 43
e 55 45
e 55 46
e 55 47
e 55 49
e 55 50
e 55 52
e 55 53
e 56 1
e 56 2
e 56 3
e 56 4
e 56 7
e 56 10
e 56 11
e 56 12
e 56 13
e 56 17
e 56 18
e 56 19
e 56 20
e 56 21
e 56 26
e 56 27
e 56 29
e 56 31
e 56 39
e 56 40
e 56 42
e 56 45
e 56 46
e 56 49
e 56 50
e 56 53
e 57 2
e 57 3
e 57 4
e 57 5
e 57 7
e 57 9
e 57 11
e 57 14
e 57 20
e 57 21
e 57 22
e 57 24
e 57 25
e 57 27
e 57 29
e 57 31
e 57 32
e 57 34
e 57 35
e 57 36
e 57 37
e 57 40
e 57 41
e 57 42
e 57 45
e 57 47
e 57 49
e 57 51
e 57 52
e 57 53
e 58 2
e 58 3
e 58 4
e 58 5
e 58 6
e 58 7
e 58 9
e 58 10
e 58 11
e 58 15
e 58 17
e 58 23
e 58 25
e 58 33
e 58 34
e 58 36
e 58 37
e 58 41
e 58 46
e 58 47
e 58 48
e 58 49
e 58 51
e 58 52
e 58 53
e 58 54
e 58 56
e 59 2
e 59 3
e 59 4
e 59 5
e 59 7
e 59 8
e 59 12
e 59 15
e 59 16
e 59 18
e 59 20
e 59 22
e 59 23
e 59 29
e 59 31
e 59 33
e 59 34
e 59 35
e 59 38
e 59 39
e 59 40
e 59 41
e 59 42
e 59 45
e 59 46
e 59 48
e 59 51
e 59 52
e 59 54
e 59 56
e 59 57
e 60 2
e 60 3
e 60 5
e 60 6
e 60 7
e 60 9
e 60 10
e 60 12
e 60 14
e 60 15
e 60 18
e 60 19
e 60 21
e 60 22
e 60 25
e 60 27
e 60 28
e 60 30
e 60 31
e 60 32
e 60 33
e 60 36
e 60 39
e 60 42
e 60 44
e 60 47
e 60 48
e 60 49
e 60 50
e 60 51
e 60 53
e 60 54
e 60 56
e 60 59
e 61 1
e 61 6
e 61 8
e 61 9
e 61 11
e 61 13
e 61 15
e 61 16
e 61 18
e 61 19
e 61 20
e 61 21
e 61 23
e 61 26
e 61 27
e 61 31
e 61 32
e 61 33
e 61 35
e 61 37
e 61 38
e 61 40
e 61 46
e 61 51
e 61 54
e 61 55
e 61 57
e 61 59
e 62 1
e 62 4
e 62 6
e 62 9
e 62 11
e 62 13
e 62 14
e 62 15
e 62 18
e 62 21
e 62 23
e 62 24
e 62 28
e 62 30
e 62 31
e 62 32
e 62 33
e 62 34
e 62 35
e 62 38
e 62 40
e 62 41
e 62 42
e 62 43
e 62 44
e 62 48
e 62 49
e 62 51
e 62 52
e 62 53
e 62 54
e 62 55
e 62 56
e 62 57
e 62 58
e 62 59
e 62 60
e 62 61
e 63 1
e 63 2
e 63 3
e 63 11
e 63 14
e 63 15
e 63 17
e 63 19
e 63 21
e 63 22
e 63 25
e 63 26
e 63 28
e 63 29
e 63 30
e 63 36
e 63 38
e 63 39
e 63 43
e 63 47
e 63 48
e 63 49
e 63 51
e 63 53
e 63 54
e 63 57
e 63 58
e 63 60
e 63 61
e 63 62
e 64 2
e 64 3
e 64 4
e 64 6
e 64 7
e 64 8
e 64 9
e 64 11
e 64 13
e 64 16
e 64 17
e 64 20
e 64 21
e 64 23
e 64 28
e 64 29
e 64 30
e 64 31
e 64 32
e 64 33
e 64 39
e 64 40
e 64 42
e 64 43
e 64 46
e 64 47
e 64 48
e 64 49
e 64 51
e 64 54
e 64 56
e 64 57
e 64 58
e 64 60
e 64 62
e 65 1
e 65 4
e 65 8
e 65 9
e 65 12
e 65 13
e 65 14
e 65 15
e 65 18
e 65 19
e 65 20
e 65 23
e 65 25
e 65 27
e 65 28
e 65 29
e 65 31
e 65 32
e 65 34
e 65 37
e 65 39
e 65 43
e 65 45
e 65 47
e 65 51
e 65 53
e 65 56
e 65 57
e 65 58
e 65 59
e 65 61
e 65 63
e 65 64
e 66 1
e 66 2
e 66 3
e 66 4
e 66 5
e 66 6
e 66 8
e 66 10
e 66 13
e 66 18
e 66 19
e 66 22
e 66 23
e 66 24
e 66 28
e 66 32
e 66 33
e 66 36
e 66 39
e 66 40
e 66 44
e 66 47
e 66 48
e 66 50
e 66 51
e 66 54
e 66 55
e 66 56
e 66 57
e 66 61
e 66 62
e 66 63
e 66 64
e 67 1
e 67 2
e 67 4
e 67 6
e 67 7
e 67 10
e 67 12
e 67 14
e 67 17
e 67 18
e 67 19
e 67 20
e 67 23
e 67 24
e 67 27
e 67 30
e 67 31
e 67 34
e 67 38
e 67 41
e 67 42
e 67 43
e 67 44
e 67 45
e 67 47
e 67 48
e 67 49
e 67 50
e 67 51
e 67 53
e 67 56
e 67 57
e 67 61
e 67 63
e 67 64
e 67 65
e 68 1
e 68 3
e 68 7
e 68 8
e 68 11
e 68 12
e 68 13
e 68 14
e 68 17
e 68 23
e 68 24
e 68 25
e 68 26
e 68 29
e 68 30
e 68 31
e 68 35
e 68 36
e 68 40
e 68 44
e 68 45
e 68 50
e 68 51
e 68 52
e 68 55
e 68 58
e 68 59
e 68 60
e 68 62
e 68 64
e 68 66
e 69 2
e 69 3
e 69 4
e 69 5
e 69 6
e 69 9
e 69 12
e 69 13
e 69 14
e 69 15
e 69 16
e 69 19
e 69 25
e 69 26
e 69 27
e 69 29
e 69 30
e 69 31
e 69 34
e 69 37
e 69 38
e 69 39
e 69 40
e 69 42
e 69 45
e 69 48
e 69 52
e 69 57
e 69 58
e 69 59
e 69 60
e 69 61
e 69 62
e 70 1
e 70 2
e 70 5
e 70 6
e 70 8
e 70 14
e 70 16
e 70 17
e 70 18
e 70 20
e 70 22
e 70 23
e 70 29
e 70 31
e 70 32
e 70 34
e 70 37
e 70 43
e 70 45
e 70 46
e 70 48
e 70 51
e 70 52
e 70 56
e 70 58
e 70 60
e 70 61
e 70 63
e 70 66
e 70 67
e 70 68
e 71 2
e 71 3
e 71 5
e 71 6
e 71 7
e 71 13
e 71 14
e 71 15
e 71 18
e 71 21
e 71 22
e 71 29
e 71 30
e 71 32
e 71 36
e 71 40
e 71 41
e 71 47
e 71 50
e 71 51
e 71 52
e 71 55
e 71 56
e 71 58
e 71 59
e 71 60
e 71 61
e 71 62
e 71 64
e 71 65
e 72 5
e 72 7
e 72 10
e 72 17
e 72 18
e 72 21
e 72 23
e 72 24
e 72 27
e 72 28
e 72 30
e 72 31
e 72 33
e 72 34
e 72 35
e 72 37
e 72 39
e 72 40
e 72 41
e 72 43
e 72 44
e 72 45
e 72 46
e 72 47
e 72 48
e 72 49
e 72 51
e 72 54
e 72 55
e 72 56
e 72 57
e 72 61
e 72 63
e 72 64
e 72 66
e 72 67
e 72 68
e 72 69
e 73 1
e 73 3
e 73 4
e 73 5
e 73 7
e 73 11
e 73 12
e 73 13
e 73 14
e 73 17
e 73 19
e 73 22
e 73 24
e 73 34
e 73 35
e 73 37
e 73 47
e 73 49
e 73 50
e 73 51
e 73 54
e 73 56
e 73 57
e 73 58
e 73 59
e 73 62
e 73 63
e 73 65
e 73 71
e 73 72
e 74 1
e 74 3
e 74 4
e 74 7
e 74 8
e 74 10
e 74 11
e 74 12
e 74 13
e 74 16
e 74 17
e 74 18
e 74 19
e 74 27
e 74 28
e 74 29
e 74 31
e 74 39
e 74 40
e 74 42
e 74 46
e 74 47
e 74 48
e 74 51
e 74 54
e 74 56
e 74 59
e 74 64
e 74 65
e 74 66
e 74 67
e 74 68
e 74 70
e 74 72
e 74 73
e 75 2
e 75 4
e 75 5
e 75 6
e 75 7
e 75 8
e 75 9
e 75 10
e 75 11
e 75 15
e 75 19
e 75 21
e 75 22
e 75 24
e 75 26
e 75 28
e 75 29
e 75 31
e 75 32
e 75 35
e 75 38
e 75 39
e 75 40
e 75 41
e 75 45
e 75 46
e 75 48
e 75 49
e 75 50
e 75 52
e 75 53
e 75 55
e 75 59
e 75 60
e 75 61
e 75 62
e 75 64
e 75 66
e 75 67
e 75 68
e 75 69
e 75 74
e 76 2
e 76 5
e 76 6
e 76 7
e 76 9
e 76 14
e 76 16
e 76 18
e 76 20
e 76 21
e 76 24
e 76 25
e 76 29
e 76 30
e 76 33
e 76 35
e 76 37
e 76 38
e 76 40
e 76 42
e 76 43
e 76 45
e 76 47
e 76 51
e 76 54
e 76 55
e 76 57
e 76 58
e 76 59
e 76 61
e 76 62
e 76 66
e 76 68
e 76 69
e 76 71
e 76 72
e 76 74
e 77 3
e 77 5
e 77 6
e 77 7
e 77 10
e 77 11
e 77 12
e 77 13
e 77 14
e 77 15
e 77 16
e 77 17
e 77 21
e 77 22
e 77 23
e 77 26
e 77 28
e 77 29
e 77 31
e 77 33
e 77 34
e 77 37
e 77 38
e 77 40
e 77 42
e 77 43
e 77 44
e 77 51
e 77 52
e 77 53
e 77 54
e 77 56
e 77 58
e 77 62
e 77 63
e 77 65
e 77 66
e 77 68
e 77 69
e 77 73
e 77 76
e 78 2
e 78 3
e 78 4
e 78 6
e 78 7
e 78 8
e 78 10
e 78 12
e 78 13
e 78 15
e 78 18
e 78 20
e 78 21
e 78 22
e 78 24
e 78 26
e 78 28
e 78 34
e 78 35
e 78 37
e 78 46
e 78 47
e 78 50
e 78 55
e 78 58
e 78 65
e 78 66
e 78 67
e 78 68
e 78 73
e 79 2
e 79 4
e 79 6
e 79 10
e 79 15
e 79 19
e 79 20
e 79 21
e 79 22
e 79 24
e 79 25
e 79 26
e 79 27
e 79 32
e 79 34
e 79 35
e 79 38
e 79 41
e 79 46
e 79 48
e 79 50
e 79 51
e 79 53
e 79 54
e 79 55
e 79 58
e 79 61
e 79 63
e 79 64
e 79 67
e 79 68
e 79 70
e 79 74
e 80 1
e 80 5
e 80 7
e 80 9
e 80 11
e 80 12
e 80 16
e 80 18
e 80 20
e 80 22
e 80 23
e 80 27
e 80 28
e 80 29
e 80 30
e 80 32
e 80 33
e 80 34
e 80 35
e 80 36
e 80 37
e 80 41
e 80 42
e 80 44
e 80 47
e 80 50
e 80 51
e 80 52
e 80 54
e 80 55
e 80 56
e 80 58
e 80 59
e 80 60
e 80 61
e 80 62
e 80 63
e 80 65
e 80 68
e 80 69
e 80 70
e 80 71
e 80 72
e 80 75
e 80 76
e 81 1
e 81 4
e 81 6
e 81 10
e 81 11
e 81 12
e 81 18
e 81 20
e 81 21
e 81 23
e 81 24
e 81 25
e 81 26
e 81 27
e 81 30
e 81 31
e 81 32
e 81 33
e 81 37
e 81 38
e 81 39
e 81 40
e 81 41
e 81 42
e 81 45
e 81 52
e 81 53
e 81 54
e 81 55
e 81 57
e 81 58
e 81 59
e 81 60
e 81 61
e 81 66
e 81 67
e 81 70
e 81 71
e 81 75
e 81 76
e 81 77
e 81 79
e 81 80
e 82 1
e 82 3
e 82 4
e 82 5
e 82 7
e 82 10
e 82 11
e 82 12
e 82 15
e 82 17
e 82 19
e 82 21
e 82 24
e 82 26
e 82 29
e 82 30
e 82 32
e 82 33
e 82 34
e 82 37
e 82 38
e 82 41
e 82 42
e 82 43
e 82 47
e 82 48
e 82 49
e 82 50
e 82 51
e 82 54
e 82 57
e 82 61
e 82 62
e 82 63
e 82 64
e 82 65
e 82 66
e 82 67
e 82 69
e 82 71
e 82 73
e 82 74
e 82 75
e 82 78
e 82 79
e 83 3
e 83 4
e 83 5
e 83 6
e 83 7
e 83 8
e 83 9
e 83 10
e 83 11
e 83 14
e 83 18
e 83 19
e 83 25
e 83 28
e 83 32
e 83 33
e 83 35
e 83 36
e 83 37
e 83 40
e 83 41
e 83 45
e 83 54
e 83 56
e 83 58
e 83 59
e 83 60
e 83 61
e 83 63
e 83 64
e 83 67
e 83 68
e 83 70
e 83 75
e 83 77
e 83 81
e 84 1
e 84 2
e 84 3
e 84 10
e 84 11
e 84 13
e 84 14
e 84 19
e 84 21
e 84 24
e 84 25
e 84 26
e 84 27
e 84 28
e 84 30
e 84 36
e 84 37
e 84 38
e 84 42
e 84 44
e 84 46
e 84 49
e 84 51
e 84 52
e 84 57
e 84 61
e 84 62
e 84 63
e 84 64
e 84 66
e 84 67
e 84 68
e 84 70
e 84 72
e 84 73
e 84 74
e 84 75
e 84 77
e 84 79
e 84 80
e 84 81
e 84 83
e 85 1
e 85 2
e 85 7
e 85 10
e 85 11
e 85 14
e 85 18
e 85 20
e 85 21
e 85 23
e 85 24
e 85 25
e 85 28
e 85 30
e 85 31
e 85 33
e 85 34
e 85 36
e 85 38
e 85 39
e 85 40
e 85 41
e 85 42
e 85 44
e 85 45
e 85 46
e 85 50
e 85 51
e 85 52
e 85 53
e 85 55
e 85 56
e 85 59
e 85 60
e 85 61
e 85 62
e 85 64
e 85 65
e 85 68
e 85 69
e 85 72
e 85 74
e 85 76
e 85 81
e 85 82
e 85 83
e 86 3
e 86 4
e 86 5
e 86 8
e 86 10
e 86 13
e 86 14
e 86 16
e 86 17
e 86 18
e 86 19
e 86 20
e 86 21
e 86 22
e 86 23
e 86 26
e 86 27
e 86 28
e 86 31
e 86 34
e 86 35
e 86 36
e 86 37
e 86 38
e 86 39
e 86 41
e 86 44
e 86 46
e 86 47
e 86 48
e 86 50
e 86 51
e 86 53
e 86 54
e 86 55
e 86 59
e 86 63
e 86 71
e 86 75
e 86 76
e 86 78
e 86 79
e 86 80
e 86 82
e 86 84
e 87 1
e 87 5
e 87 6
e 87 7
e 87 8
